nK = 1610;
nT = 8;
nI = 21;
L = 29;
TT = 330;
np = 1;
nc = 3;
b = [57, 33, 29, 69, 50, 53, 34, 27, 67, 43, 21, 43, 50, 45, 65, 51, 27, 26, 58, 52, 55];
d = [121, 128, 72, 148, 115, 128, 53, 106, 121, 110, 108, 86, 125, 118, 141, 100, 106, 44, 106, 126, 144];
m = [2.1, 1.7, 1.5, 1, 1.2, 1.8, 1.3, 1.7, 1.4, 1.2, 1.1, 2.4, 1.8, 1.9, 1.5, 1.3, 2.3, 1.7, 2.2, 1.5, 1.1];
pt = [0.3, 0.24, 0.2, 0.29, 0.28, 0.35, 0.2, 0.25];
st = [12.9, 13.2, 8, 14.21, 11.2, 17.15, 11, 13];
arc = {<1, 0, 1, 1, 0, 0, 0, [1, 1, 1, 1, 1, 1, 1, 1]>, <2, 1, 2, 1, 0, 0, 0, [1, 1, 1, 1, 1, 1, 1, 1]>, <3, 2, 3, 1, 0, 0, 0, [1, 1, 1, 1, 1, 1, 1, 1]>, <4, 3, 4, 1, 0, 0, 0, [1, 1, 1, 1, 1, 1, 1, 1]>, <5, 4, 5, 1, 0, 0, 0, [1, 1, 1, 1, 1, 1, 1, 1]>, <6, 5, 6, 1, 0, 0, 0, [1, 1, 1, 1, 1, 1, 1, 1]>, <7, 6, 7, 1, 0, 0, 0, [1, 1, 1, 1, 1, 1, 1, 1]>, <8, 7, 8, 1, 0, 0, 0, [1, 1, 1, 1, 1, 1, 1, 1]>, <9, 8, 9, 1, 0, 0, 0, [1, 1, 1, 1, 1, 1, 1, 1]>, <10, 9, 10, 1, 0, 0, 0, [1, 1, 1, 1, 1, 1, 1, 1]>, <11, 10, 11, 1, 0, 0, 0, [1, 1, 1, 1, 1, 1, 1, 1]>, <12, 11, 12, 1, 0, 0, 0, [1, 1, 1, 1, 1, 1, 1, 1]>, <13, 12, 13, 1, 0, 0, 0, [1, 1, 1, 1, 1, 1, 1, 1]>, <14, 13, 14, 1, 0, 0, 0, [1, 1, 1, 1, 1, 1, 1, 1]>, <15, 14, 15, 1, 0, 0, 0, [1, 1, 1, 1, 1, 1, 1, 1]>, <16, 15, 16, 1, 0, 0, 0, [1, 1, 1, 1, 1, 1, 1, 1]>, <17, 16, 17, 1, 0, 0, 0, [1, 1, 1, 1, 1, 1, 1, 1]>, <18, 17, 18, 1, 0, 0, 0, [1, 1, 1, 1, 1, 1, 1, 1]>, <19, 18, 19, 1, 0, 0, 0, [1, 1, 1, 1, 1, 1, 1, 1]>, <20, 19, 20, 1, 0, 0, 0, [1, 1, 1, 1, 1, 1, 1, 1]>, <21, 20, 21, 1, 0, 0, 0, [1, 1, 1, 1, 1, 1, 1, 1]>, <22, 21, 22, 1, 0, 0, 0, [1, 1, 1, 1, 1, 1, 1, 1]>, <23, 22, 23, 1, 0, 0, 0, [1, 1, 1, 1, 1, 1, 1, 1]>, <24, 23, 24, 1, 0, 0, 0, [1, 1, 1, 1, 1, 1, 1, 1]>, <25, 24, 25, 1, 0, 0, 0, [1, 1, 1, 1, 1, 1, 1, 1]>, <26, 25, 26, 1, 0, 0, 0, [1, 1, 1, 1, 1, 1, 1, 1]>, <27, 26, 27, 1, 0, 0, 0, [1, 1, 1, 1, 1, 1, 1, 1]>, <28, 27, 28, 1, 0, 0, 0, [1, 1, 1, 1, 1, 1, 1, 1]>, <29, 28, 29, 1, 0, 0, 0, [1, 1, 1, 1, 1, 1, 1, 1]>, <30, 1, 12, 11, 1, 0, 0, [1, 1, 0, 0, 0, 0, 1, 1]>, <31, 2, 13, 11, 1, 0, 0, [1, 1, 0, 0, 0, 0, 1, 1]>, <32, 3, 14, 11, 1, 0, 0, [1, 1, 0, 0, 0, 0, 1, 1]>, <33, 4, 15, 11, 1, 0, 0, [1, 1, 0, 0, 0, 0, 1, 1]>, <34, 5, 16, 11, 1, 0, 0, [1, 1, 0, 0, 0, 0, 1, 1]>, <35, 9, 20, 11, 1, 0, 0, [1, 1, 0, 0, 0, 0, 1, 1]>, <36, 10, 21, 11, 1, 0, 0, [1, 1, 0, 0, 0, 0, 1, 1]>, <37, 11, 22, 11, 1, 0, 0, [1, 1, 0, 0, 0, 0, 1, 1]>, <38, 12, 23, 11, 1, 0, 0, [1, 1, 0, 0, 0, 0, 1, 1]>, <39, 13, 24, 11, 1, 0, 0, [1, 1, 0, 0, 0, 0, 1, 1]>, <40, 14, 25, 11, 1, 0, 0, [1, 1, 0, 0, 0, 0, 1, 1]>, <41, 15, 26, 11, 1, 0, 0, [1, 1, 0, 0, 0, 0, 1, 1]>, <42, 16, 27, 11, 1, 0, 0, [1, 1, 0, 0, 0, 0, 1, 1]>, <43, 17, 28, 11, 1, 0, 0, [1, 1, 0, 0, 0, 0, 1, 1]>, <44, 18, 29, 11, 1, 0, 0, [1, 1, 0, 0, 0, 0, 1, 1]>, <45, 3, 12, 9, 2, 0, 0, [1, 1, 1, 1, 0, 0, 0, 0]>, <46, 4, 13, 9, 2, 0, 0, [1, 1, 1, 1, 0, 0, 0, 0]>, <47, 5, 14, 9, 2, 0, 0, [1, 1, 1, 1, 0, 0, 0, 0]>, <48, 11, 20, 9, 2, 0, 0, [1, 1, 1, 1, 0, 0, 0, 0]>, <49, 12, 21, 9, 2, 0, 0, [1, 1, 1, 1, 0, 0, 0, 0]>, <50, 15, 24, 9, 2, 0, 0, [1, 1, 1, 1, 0, 0, 0, 0]>, <51, 16, 25, 9, 2, 0, 0, [1, 1, 1, 1, 0, 0, 0, 0]>, <52, 17, 26, 9, 2, 0, 0, [1, 1, 1, 1, 0, 0, 0, 0]>, <53, 18, 27, 9, 2, 0, 0, [1, 1, 1, 1, 0, 0, 0, 0]>, <54, 19, 28, 9, 2, 0, 0, [1, 1, 1, 1, 0, 0, 0, 0]>, <55, 20, 29, 9, 2, 0, 0, [1, 1, 1, 1, 0, 0, 0, 0]>, <56, 4, 12, 8, 3, 1, 0, [1, 1, 1, 0, 0, 0, 0, 1]>, <57, 5, 13, 8, 3, 1, 0, [1, 1, 1, 0, 0, 0, 0, 1]>, <58, 11, 19, 8, 3, 1, 0, [1, 1, 1, 0, 0, 0, 0, 1]>, <59, 12, 20, 8, 3, 1, 0, [1, 1, 1, 0, 0, 0, 0, 1]>, <60, 16, 24, 8, 3, 1, 0, [1, 1, 1, 0, 0, 0, 0, 1]>, <61, 17, 25, 8, 3, 1, 0, [1, 1, 1, 0, 0, 0, 0, 1]>, <62, 18, 26, 8, 3, 1, 0, [1, 1, 1, 0, 0, 0, 0, 1]>, <63, 19, 27, 8, 3, 1, 0, [1, 1, 1, 0, 0, 0, 0, 1]>, <64, 20, 28, 8, 3, 1, 0, [1, 1, 1, 0, 0, 0, 0, 1]>, <65, 4, 12, 8, 4, 0, 0, [1, 0, 0, 0, 0, 1, 1, 1]>, <66, 5, 13, 8, 4, 0, 0, [1, 0, 0, 0, 0, 1, 1, 1]>, <67, 11, 19, 8, 4, 0, 0, [1, 0, 0, 0, 0, 1, 1, 1]>, <68, 12, 20, 8, 4, 0, 0, [1, 0, 0, 0, 0, 1, 1, 1]>, <69, 16, 24, 8, 4, 0, 0, [1, 0, 0, 0, 0, 1, 1, 1]>, <70, 17, 25, 8, 4, 0, 0, [1, 0, 0, 0, 0, 1, 1, 1]>, <71, 18, 26, 8, 4, 0, 0, [1, 0, 0, 0, 0, 1, 1, 1]>, <72, 19, 27, 8, 4, 0, 0, [1, 0, 0, 0, 0, 1, 1, 1]>, <73, 20, 28, 8, 4, 0, 0, [1, 0, 0, 0, 0, 1, 1, 1]>, <74, 0, 12, 12, 5, 0, 0, [0, 0, 0, 1, 1, 1, 1, 0]>, <75, 1, 13, 12, 5, 0, 0, [0, 0, 0, 1, 1, 1, 1, 0]>, <76, 2, 14, 12, 5, 0, 0, [0, 0, 0, 1, 1, 1, 1, 0]>, <77, 3, 15, 12, 5, 0, 0, [0, 0, 0, 1, 1, 1, 1, 0]>, <78, 4, 16, 12, 5, 0, 0, [0, 0, 0, 1, 1, 1, 1, 0]>, <79, 5, 17, 12, 5, 0, 0, [0, 0, 0, 1, 1, 1, 1, 0]>, <80, 8, 20, 12, 5, 0, 0, [0, 0, 0, 1, 1, 1, 1, 0]>, <81, 9, 21, 12, 5, 0, 0, [0, 0, 0, 1, 1, 1, 1, 0]>, <82, 10, 22, 12, 5, 0, 0, [0, 0, 0, 1, 1, 1, 1, 0]>, <83, 11, 23, 12, 5, 0, 0, [0, 0, 0, 1, 1, 1, 1, 0]>, <84, 12, 24, 12, 5, 0, 0, [0, 0, 0, 1, 1, 1, 1, 0]>, <85, 13, 25, 12, 5, 0, 0, [0, 0, 0, 1, 1, 1, 1, 0]>, <86, 14, 26, 12, 5, 0, 0, [0, 0, 0, 1, 1, 1, 1, 0]>, <87, 15, 27, 12, 5, 0, 0, [0, 0, 0, 1, 1, 1, 1, 0]>, <88, 16, 28, 12, 5, 0, 0, [0, 0, 0, 1, 1, 1, 1, 0]>, <89, 17, 29, 12, 5, 0, 0, [0, 0, 0, 1, 1, 1, 1, 0]>, <90, 3, 12, 9, 6, 0, 0, [1, 1, 1, 1, 0, 0, 0, 0]>, <91, 4, 13, 9, 6, 0, 0, [1, 1, 1, 1, 0, 0, 0, 0]>, <92, 5, 14, 9, 6, 0, 0, [1, 1, 1, 1, 0, 0, 0, 0]>, <93, 11, 20, 9, 6, 0, 0, [1, 1, 1, 1, 0, 0, 0, 0]>, <94, 12, 21, 9, 6, 0, 0, [1, 1, 1, 1, 0, 0, 0, 0]>, <95, 15, 24, 9, 6, 0, 0, [1, 1, 1, 1, 0, 0, 0, 0]>, <96, 16, 25, 9, 6, 0, 0, [1, 1, 1, 1, 0, 0, 0, 0]>, <97, 17, 26, 9, 6, 0, 0, [1, 1, 1, 1, 0, 0, 0, 0]>, <98, 18, 27, 9, 6, 0, 0, [1, 1, 1, 1, 0, 0, 0, 0]>, <99, 19, 28, 9, 6, 0, 0, [1, 1, 1, 1, 0, 0, 0, 0]>, <100, 20, 29, 9, 6, 0, 0, [1, 1, 1, 1, 0, 0, 0, 0]>, <101, 3, 12, 9, 7, 0, 1, [0, 0, 0, 1, 1, 1, 1, 0]>, <102, 4, 13, 9, 7, 0, 1, [0, 0, 0, 1, 1, 1, 1, 0]>, <103, 5, 14, 9, 7, 0, 1, [0, 0, 0, 1, 1, 1, 1, 0]>, <104, 11, 20, 9, 7, 0, 1, [0, 0, 0, 1, 1, 1, 1, 0]>, <105, 12, 21, 9, 7, 0, 1, [0, 0, 0, 1, 1, 1, 1, 0]>, <106, 15, 24, 9, 7, 0, 1, [0, 0, 0, 1, 1, 1, 1, 0]>, <107, 16, 25, 9, 7, 0, 1, [0, 0, 0, 1, 1, 1, 1, 0]>, <108, 17, 26, 9, 7, 0, 1, [0, 0, 0, 1, 1, 1, 1, 0]>, <109, 18, 27, 9, 7, 0, 1, [0, 0, 0, 1, 1, 1, 1, 0]>, <110, 19, 28, 9, 7, 0, 1, [0, 0, 0, 1, 1, 1, 1, 0]>, <111, 20, 29, 9, 7, 0, 1, [0, 0, 0, 1, 1, 1, 1, 0]>, <112, 2, 12, 10, 8, 0, 1, [0, 0, 0, 1, 1, 1, 1, 0]>, <113, 3, 13, 10, 8, 0, 1, [0, 0, 0, 1, 1, 1, 1, 0]>, <114, 4, 14, 10, 8, 0, 1, [0, 0, 0, 1, 1, 1, 1, 0]>, <115, 5, 15, 10, 8, 0, 1, [0, 0, 0, 1, 1, 1, 1, 0]>, <116, 10, 20, 10, 8, 0, 1, [0, 0, 0, 1, 1, 1, 1, 0]>, <117, 11, 21, 10, 8, 0, 1, [0, 0, 0, 1, 1, 1, 1, 0]>, <118, 12, 22, 10, 8, 0, 1, [0, 0, 0, 1, 1, 1, 1, 0]>, <119, 14, 24, 10, 8, 0, 1, [0, 0, 0, 1, 1, 1, 1, 0]>, <120, 15, 25, 10, 8, 0, 1, [0, 0, 0, 1, 1, 1, 1, 0]>, <121, 16, 26, 10, 8, 0, 1, [0, 0, 0, 1, 1, 1, 1, 0]>, <122, 17, 27, 10, 8, 0, 1, [0, 0, 0, 1, 1, 1, 1, 0]>, <123, 18, 28, 10, 8, 0, 1, [0, 0, 0, 1, 1, 1, 1, 0]>, <124, 19, 29, 10, 8, 0, 1, [0, 0, 0, 1, 1, 1, 1, 0]>, <125, 1, 12, 11, 9, 0, 0, [1, 1, 0, 0, 0, 0, 1, 1]>, <126, 2, 13, 11, 9, 0, 0, [1, 1, 0, 0, 0, 0, 1, 1]>, <127, 3, 14, 11, 9, 0, 0, [1, 1, 0, 0, 0, 0, 1, 1]>, <128, 4, 15, 11, 9, 0, 0, [1, 1, 0, 0, 0, 0, 1, 1]>, <129, 5, 16, 11, 9, 0, 0, [1, 1, 0, 0, 0, 0, 1, 1]>, <130, 9, 20, 11, 9, 0, 0, [1, 1, 0, 0, 0, 0, 1, 1]>, <131, 10, 21, 11, 9, 0, 0, [1, 1, 0, 0, 0, 0, 1, 1]>, <132, 11, 22, 11, 9, 0, 0, [1, 1, 0, 0, 0, 0, 1, 1]>, <133, 12, 23, 11, 9, 0, 0, [1, 1, 0, 0, 0, 0, 1, 1]>, <134, 13, 24, 11, 9, 0, 0, [1, 1, 0, 0, 0, 0, 1, 1]>, <135, 14, 25, 11, 9, 0, 0, [1, 1, 0, 0, 0, 0, 1, 1]>, <136, 15, 26, 11, 9, 0, 0, [1, 1, 0, 0, 0, 0, 1, 1]>, <137, 16, 27, 11, 9, 0, 0, [1, 1, 0, 0, 0, 0, 1, 1]>, <138, 17, 28, 11, 9, 0, 0, [1, 1, 0, 0, 0, 0, 1, 1]>, <139, 18, 29, 11, 9, 0, 0, [1, 1, 0, 0, 0, 0, 1, 1]>, <140, 4, 11, 7, 10, 0, 1, [1, 1, 0, 0, 0, 0, 1, 1]>, <141, 5, 12, 7, 10, 0, 1, [1, 1, 0, 0, 0, 0, 1, 1]>, <142, 11, 18, 7, 10, 0, 1, [1, 1, 0, 0, 0, 0, 1, 1]>, <143, 12, 19, 7, 10, 0, 1, [1, 1, 0, 0, 0, 0, 1, 1]>, <144, 17, 24, 7, 10, 0, 1, [1, 1, 0, 0, 0, 0, 1, 1]>, <145, 18, 25, 7, 10, 0, 1, [1, 1, 0, 0, 0, 0, 1, 1]>, <146, 19, 26, 7, 10, 0, 1, [1, 1, 0, 0, 0, 0, 1, 1]>, <147, 20, 27, 7, 10, 0, 1, [1, 1, 0, 0, 0, 0, 1, 1]>, <148, 1, 12, 11, 11, 0, 0, [1, 1, 0, 0, 0, 0, 1, 1]>, <149, 2, 13, 11, 11, 0, 0, [1, 1, 0, 0, 0, 0, 1, 1]>, <150, 3, 14, 11, 11, 0, 0, [1, 1, 0, 0, 0, 0, 1, 1]>, <151, 4, 15, 11, 11, 0, 0, [1, 1, 0, 0, 0, 0, 1, 1]>, <152, 5, 16, 11, 11, 0, 0, [1, 1, 0, 0, 0, 0, 1, 1]>, <153, 9, 20, 11, 11, 0, 0, [1, 1, 0, 0, 0, 0, 1, 1]>, <154, 10, 21, 11, 11, 0, 0, [1, 1, 0, 0, 0, 0, 1, 1]>, <155, 11, 22, 11, 11, 0, 0, [1, 1, 0, 0, 0, 0, 1, 1]>, <156, 12, 23, 11, 11, 0, 0, [1, 1, 0, 0, 0, 0, 1, 1]>, <157, 13, 24, 11, 11, 0, 0, [1, 1, 0, 0, 0, 0, 1, 1]>, <158, 14, 25, 11, 11, 0, 0, [1, 1, 0, 0, 0, 0, 1, 1]>, <159, 15, 26, 11, 11, 0, 0, [1, 1, 0, 0, 0, 0, 1, 1]>, <160, 16, 27, 11, 11, 0, 0, [1, 1, 0, 0, 0, 0, 1, 1]>, <161, 17, 28, 11, 11, 0, 0, [1, 1, 0, 0, 0, 0, 1, 1]>, <162, 18, 29, 11, 11, 0, 0, [1, 1, 0, 0, 0, 0, 1, 1]>, <163, 3, 12, 9, 12, 0, 0, [0, 1, 1, 1, 1, 0, 0, 0]>, <164, 4, 13, 9, 12, 0, 0, [0, 1, 1, 1, 1, 0, 0, 0]>, <165, 5, 14, 9, 12, 0, 0, [0, 1, 1, 1, 1, 0, 0, 0]>, <166, 11, 20, 9, 12, 0, 0, [0, 1, 1, 1, 1, 0, 0, 0]>, <167, 12, 21, 9, 12, 0, 0, [0, 1, 1, 1, 1, 0, 0, 0]>, <168, 15, 24, 9, 12, 0, 0, [0, 1, 1, 1, 1, 0, 0, 0]>, <169, 16, 25, 9, 12, 0, 0, [0, 1, 1, 1, 1, 0, 0, 0]>, <170, 17, 26, 9, 12, 0, 0, [0, 1, 1, 1, 1, 0, 0, 0]>, <171, 18, 27, 9, 12, 0, 0, [0, 1, 1, 1, 1, 0, 0, 0]>, <172, 19, 28, 9, 12, 0, 0, [0, 1, 1, 1, 1, 0, 0, 0]>, <173, 20, 29, 9, 12, 0, 0, [0, 1, 1, 1, 1, 0, 0, 0]>, <174, 2, 12, 10, 13, 0, 0, [1, 1, 0, 0, 0, 0, 1, 1]>, <175, 3, 13, 10, 13, 0, 0, [1, 1, 0, 0, 0, 0, 1, 1]>, <176, 4, 14, 10, 13, 0, 0, [1, 1, 0, 0, 0, 0, 1, 1]>, <177, 5, 15, 10, 13, 0, 0, [1, 1, 0, 0, 0, 0, 1, 1]>, <178, 10, 20, 10, 13, 0, 0, [1, 1, 0, 0, 0, 0, 1, 1]>, <179, 11, 21, 10, 13, 0, 0, [1, 1, 0, 0, 0, 0, 1, 1]>, <180, 12, 22, 10, 13, 0, 0, [1, 1, 0, 0, 0, 0, 1, 1]>, <181, 14, 24, 10, 13, 0, 0, [1, 1, 0, 0, 0, 0, 1, 1]>, <182, 15, 25, 10, 13, 0, 0, [1, 1, 0, 0, 0, 0, 1, 1]>, <183, 16, 26, 10, 13, 0, 0, [1, 1, 0, 0, 0, 0, 1, 1]>, <184, 17, 27, 10, 13, 0, 0, [1, 1, 0, 0, 0, 0, 1, 1]>, <185, 18, 28, 10, 13, 0, 0, [1, 1, 0, 0, 0, 0, 1, 1]>, <186, 19, 29, 10, 13, 0, 0, [1, 1, 0, 0, 0, 0, 1, 1]>, <187, 3, 12, 9, 14, 0, 0, [0, 0, 1, 1, 1, 1, 0, 0]>, <188, 4, 13, 9, 14, 0, 0, [0, 0, 1, 1, 1, 1, 0, 0]>, <189, 5, 14, 9, 14, 0, 0, [0, 0, 1, 1, 1, 1, 0, 0]>, <190, 11, 20, 9, 14, 0, 0, [0, 0, 1, 1, 1, 1, 0, 0]>, <191, 12, 21, 9, 14, 0, 0, [0, 0, 1, 1, 1, 1, 0, 0]>, <192, 15, 24, 9, 14, 0, 0, [0, 0, 1, 1, 1, 1, 0, 0]>, <193, 16, 25, 9, 14, 0, 0, [0, 0, 1, 1, 1, 1, 0, 0]>, <194, 17, 26, 9, 14, 0, 0, [0, 0, 1, 1, 1, 1, 0, 0]>, <195, 18, 27, 9, 14, 0, 0, [0, 0, 1, 1, 1, 1, 0, 0]>, <196, 19, 28, 9, 14, 0, 0, [0, 0, 1, 1, 1, 1, 0, 0]>, <197, 20, 29, 9, 14, 0, 0, [0, 0, 1, 1, 1, 1, 0, 0]>, <198, 4, 11, 7, 15, 0, 1, [1, 1, 0, 0, 0, 0, 1, 1]>, <199, 5, 12, 7, 15, 0, 1, [1, 1, 0, 0, 0, 0, 1, 1]>, <200, 11, 18, 7, 15, 0, 1, [1, 1, 0, 0, 0, 0, 1, 1]>, <201, 12, 19, 7, 15, 0, 1, [1, 1, 0, 0, 0, 0, 1, 1]>, <202, 17, 24, 7, 15, 0, 1, [1, 1, 0, 0, 0, 0, 1, 1]>, <203, 18, 25, 7, 15, 0, 1, [1, 1, 0, 0, 0, 0, 1, 1]>, <204, 19, 26, 7, 15, 0, 1, [1, 1, 0, 0, 0, 0, 1, 1]>, <205, 20, 27, 7, 15, 0, 1, [1, 1, 0, 0, 0, 0, 1, 1]>, <206, 1, 12, 11, 16, 0, 0, [1, 1, 0, 0, 0, 0, 1, 1]>, <207, 2, 13, 11, 16, 0, 0, [1, 1, 0, 0, 0, 0, 1, 1]>, <208, 3, 14, 11, 16, 0, 0, [1, 1, 0, 0, 0, 0, 1, 1]>, <209, 4, 15, 11, 16, 0, 0, [1, 1, 0, 0, 0, 0, 1, 1]>, <210, 5, 16, 11, 16, 0, 0, [1, 1, 0, 0, 0, 0, 1, 1]>, <211, 9, 20, 11, 16, 0, 0, [1, 1, 0, 0, 0, 0, 1, 1]>, <212, 10, 21, 11, 16, 0, 0, [1, 1, 0, 0, 0, 0, 1, 1]>, <213, 11, 22, 11, 16, 0, 0, [1, 1, 0, 0, 0, 0, 1, 1]>, <214, 12, 23, 11, 16, 0, 0, [1, 1, 0, 0, 0, 0, 1, 1]>, <215, 13, 24, 11, 16, 0, 0, [1, 1, 0, 0, 0, 0, 1, 1]>, <216, 14, 25, 11, 16, 0, 0, [1, 1, 0, 0, 0, 0, 1, 1]>, <217, 15, 26, 11, 16, 0, 0, [1, 1, 0, 0, 0, 0, 1, 1]>, <218, 16, 27, 11, 16, 0, 0, [1, 1, 0, 0, 0, 0, 1, 1]>, <219, 17, 28, 11, 16, 0, 0, [1, 1, 0, 0, 0, 0, 1, 1]>, <220, 18, 29, 11, 16, 0, 0, [1, 1, 0, 0, 0, 0, 1, 1]>, <221, 3, 12, 9, 17, 0, 1, [1, 1, 1, 0, 0, 0, 0, 1]>, <222, 4, 13, 9, 17, 0, 1, [1, 1, 1, 0, 0, 0, 0, 1]>, <223, 5, 14, 9, 17, 0, 1, [1, 1, 1, 0, 0, 0, 0, 1]>, <224, 11, 20, 9, 17, 0, 1, [1, 1, 1, 0, 0, 0, 0, 1]>, <225, 12, 21, 9, 17, 0, 1, [1, 1, 1, 0, 0, 0, 0, 1]>, <226, 15, 24, 9, 17, 0, 1, [1, 1, 1, 0, 0, 0, 0, 1]>, <227, 16, 25, 9, 17, 0, 1, [1, 1, 1, 0, 0, 0, 0, 1]>, <228, 17, 26, 9, 17, 0, 1, [1, 1, 1, 0, 0, 0, 0, 1]>, <229, 18, 27, 9, 17, 0, 1, [1, 1, 1, 0, 0, 0, 0, 1]>, <230, 19, 28, 9, 17, 0, 1, [1, 1, 1, 0, 0, 0, 0, 1]>, <231, 20, 29, 9, 17, 0, 1, [1, 1, 1, 0, 0, 0, 0, 1]>, <232, 4, 11, 7, 18, 0, 0, [0, 0, 0, 0, 1, 1, 1, 1]>, <233, 5, 12, 7, 18, 0, 0, [0, 0, 0, 0, 1, 1, 1, 1]>, <234, 11, 18, 7, 18, 0, 0, [0, 0, 0, 0, 1, 1, 1, 1]>, <235, 12, 19, 7, 18, 0, 0, [0, 0, 0, 0, 1, 1, 1, 1]>, <236, 17, 24, 7, 18, 0, 0, [0, 0, 0, 0, 1, 1, 1, 1]>, <237, 18, 25, 7, 18, 0, 0, [0, 0, 0, 0, 1, 1, 1, 1]>, <238, 19, 26, 7, 18, 0, 0, [0, 0, 0, 0, 1, 1, 1, 1]>, <239, 20, 27, 7, 18, 0, 0, [0, 0, 0, 0, 1, 1, 1, 1]>, <240, 4, 12, 8, 19, 0, 0, [0, 0, 1, 1, 1, 1, 0, 0]>, <241, 5, 13, 8, 19, 0, 0, [0, 0, 1, 1, 1, 1, 0, 0]>, <242, 11, 19, 8, 19, 0, 0, [0, 0, 1, 1, 1, 1, 0, 0]>, <243, 12, 20, 8, 19, 0, 0, [0, 0, 1, 1, 1, 1, 0, 0]>, <244, 16, 24, 8, 19, 0, 0, [0, 0, 1, 1, 1, 1, 0, 0]>, <245, 17, 25, 8, 19, 0, 0, [0, 0, 1, 1, 1, 1, 0, 0]>, <246, 18, 26, 8, 19, 0, 0, [0, 0, 1, 1, 1, 1, 0, 0]>, <247, 19, 27, 8, 19, 0, 0, [0, 0, 1, 1, 1, 1, 0, 0]>, <248, 20, 28, 8, 19, 0, 0, [0, 0, 1, 1, 1, 1, 0, 0]>, <249, 2, 12, 10, 20, 0, 1, [0, 0, 1, 1, 1, 1, 0, 0]>, <250, 3, 13, 10, 20, 0, 1, [0, 0, 1, 1, 1, 1, 0, 0]>, <251, 4, 14, 10, 20, 0, 1, [0, 0, 1, 1, 1, 1, 0, 0]>, <252, 5, 15, 10, 20, 0, 1, [0, 0, 1, 1, 1, 1, 0, 0]>, <253, 10, 20, 10, 20, 0, 1, [0, 0, 1, 1, 1, 1, 0, 0]>, <254, 11, 21, 10, 20, 0, 1, [0, 0, 1, 1, 1, 1, 0, 0]>, <255, 12, 22, 10, 20, 0, 1, [0, 0, 1, 1, 1, 1, 0, 0]>, <256, 14, 24, 10, 20, 0, 1, [0, 0, 1, 1, 1, 1, 0, 0]>, <257, 15, 25, 10, 20, 0, 1, [0, 0, 1, 1, 1, 1, 0, 0]>, <258, 16, 26, 10, 20, 0, 1, [0, 0, 1, 1, 1, 1, 0, 0]>, <259, 17, 27, 10, 20, 0, 1, [0, 0, 1, 1, 1, 1, 0, 0]>, <260, 18, 28, 10, 20, 0, 1, [0, 0, 1, 1, 1, 1, 0, 0]>, <261, 19, 29, 10, 20, 0, 1, [0, 0, 1, 1, 1, 1, 0, 0]>, <262, 1, 12, 11, 21, 1, 0, [1, 0, 0, 0, 0, 1, 1, 1]>, <263, 2, 13, 11, 21, 1, 0, [1, 0, 0, 0, 0, 1, 1, 1]>, <264, 3, 14, 11, 21, 1, 0, [1, 0, 0, 0, 0, 1, 1, 1]>, <265, 4, 15, 11, 21, 1, 0, [1, 0, 0, 0, 0, 1, 1, 1]>, <266, 5, 16, 11, 21, 1, 0, [1, 0, 0, 0, 0, 1, 1, 1]>, <267, 9, 20, 11, 21, 1, 0, [1, 0, 0, 0, 0, 1, 1, 1]>, <268, 10, 21, 11, 21, 1, 0, [1, 0, 0, 0, 0, 1, 1, 1]>, <269, 11, 22, 11, 21, 1, 0, [1, 0, 0, 0, 0, 1, 1, 1]>, <270, 12, 23, 11, 21, 1, 0, [1, 0, 0, 0, 0, 1, 1, 1]>, <271, 13, 24, 11, 21, 1, 0, [1, 0, 0, 0, 0, 1, 1, 1]>, <272, 14, 25, 11, 21, 1, 0, [1, 0, 0, 0, 0, 1, 1, 1]>, <273, 15, 26, 11, 21, 1, 0, [1, 0, 0, 0, 0, 1, 1, 1]>, <274, 16, 27, 11, 21, 1, 0, [1, 0, 0, 0, 0, 1, 1, 1]>, <275, 17, 28, 11, 21, 1, 0, [1, 0, 0, 0, 0, 1, 1, 1]>, <276, 18, 29, 11, 21, 1, 0, [1, 0, 0, 0, 0, 1, 1, 1]>};
